* Problem:    Subset Sum: C - medium
* Class:      MIP
* Rows:       1
* Columns:    50 (50 integer, 50 binary)
* Non-zeros:  50
* Format:     Fixed MPS
*
NAME
ROWS
 N  R0000000
 E  r.5
COLUMNS
    M0000001  'MARKER'                 'INTORG'
    x0        R0000000            -7   r.5                  7
    x1        R0000000           -12   r.5                 12
    x2        R0000000           -12   r.5                 12
    x3        R0000000           -13   r.5                 13
    x4        R0000000           -14   r.5                 14
    x5        R0000000           -28   r.5                 28
    x6        R0000000           -29   r.5                 29
    x7        R0000000           -29   r.5                 29
    x8        R0000000           -30   r.5                 30
    x9        R0000000           -32   r.5                 32
    x10       R0000000           -32   r.5                 32
    x11       R0000000           -34   r.5                 34
    x12       R0000000           -41   r.5                 41
    x13       R0000000           -45   r.5                 45
    x14       R0000000           -46   r.5                 46
    x15       R0000000           -56   r.5                 56
    x16       R0000000           -61   r.5                 61
    x17       R0000000           -61   r.5                 61
    x18       R0000000           -62   r.5                 62
    x19       R0000000           -63   r.5                 63
    x20       R0000000           -65   r.5                 65
    x21       R0000000           -68   r.5                 68
    x22       R0000000           -76   r.5                 76
    x23       R0000000           -77   r.5                 77
    x24       R0000000           -77   r.5                 77
    x25       R0000000           -92   r.5                 92
    x26       R0000000           -93   r.5                 93
    x27       R0000000           -94   r.5                 94
    x28       R0000000           -97   r.5                 97
    x29       R0000000          -103   r.5                103
    x30       R0000000          -113   r.5                113
    x31       R0000000          -114   r.5                114
    x32       R0000000          -114   r.5                114
    x33       R0000000          -120   r.5                120
    x34       R0000000          -135   r.5                135
    x35       R0000000          -145   r.5                145
    x36       R0000000          -145   r.5                145
    x37       R0000000          -149   r.5                149
    x38       R0000000          -156   r.5                156
    x39       R0000000          -157   r.5                157
    x40       R0000000          -160   r.5                160
    x41       R0000000          -169   r.5                169
    x42       R0000000          -172   r.5                172
    x43       R0000000          -179   r.5                179
    x44       R0000000          -184   r.5                184
    x45       R0000000          -185   r.5                185
    x46       R0000000          -189   r.5                189
    x47       R0000000          -194   r.5                194
    x48       R0000000          -195   r.5                195
    x49       R0000000          -195   r.5                195
    M0000002  'MARKER'                 'INTEND'
RHS
    RHS1      r.5               4500
BOUNDS
 UP BND1      x0                   1
 UP BND1      x1                   1
 UP BND1      x2                   1
 UP BND1      x3                   1
 UP BND1      x4                   1
 UP BND1      x5                   1
 UP BND1      x6                   1
 UP BND1      x7                   1
 UP BND1      x8                   1
 UP BND1      x9                   1
 UP BND1      x10                  1
 UP BND1      x11                  1
 UP BND1      x12                  1
 UP BND1      x13                  1
 UP BND1      x14                  1
 UP BND1      x15                  1
 UP BND1      x16                  1
 UP BND1      x17                  1
 UP BND1      x18                  1
 UP BND1      x19                  1
 UP BND1      x20                  1
 UP BND1      x21                  1
 UP BND1      x22                  1
 UP BND1      x23                  1
 UP BND1      x24                  1
 UP BND1      x25                  1
 UP BND1      x26                  1
 UP BND1      x27                  1
 UP BND1      x28                  1
 UP BND1      x29                  1
 UP BND1      x30                  1
 UP BND1      x31                  1
 UP BND1      x32                  1
 UP BND1      x33                  1
 UP BND1      x34                  1
 UP BND1      x35                  1
 UP BND1      x36                  1
 UP BND1      x37                  1
 UP BND1      x38                  1
 UP BND1      x39                  1
 UP BND1      x40                  1
 UP BND1      x41                  1
 UP BND1      x42                  1
 UP BND1      x43                  1
 UP BND1      x44                  1
 UP BND1      x45                  1
 UP BND1      x46                  1
 UP BND1      x47                  1
 UP BND1      x48                  1
 UP BND1      x49                  1
ENDATA
